100 90 10
0 1 0
1 2 0
2 3 0
3 4 0
4 5 0
5 6 0
6 7 0
7 8 0
8 9 0
10 11 1
11 12 1
12 13 1
13 14 1
14 15 1
15 16 1
16 17 1
17 18 1
18 19 1
20 21 2
21 22 2
22 23 2
23 24 2
24 25 2
25 26 2
26 27 2
27 28 2
28 29 2
30 31 3
31 32 3
32 33 3
33 34 3
34 35 3
35 36 3
36 37 3
37 38 3
38 39 3
40 41 4
41 42 4
42 43 4
43 44 4
44 45 4
45 46 4
46 47 4
47 48 4
48 49 4
50 51 5
51 52 5
52 53 5
53 54 5
54 55 5
55 56 5
56 57 5
57 58 5
58 59 5
60 61 6
61 62 6
62 63 6
63 64 6
64 65 6
65 66 6
66 67 6
67 68 6
68 69 6
70 71 7
71 72 7
72 73 7
73 74 7
74 75 7
75 76 7
76 77 7
77 78 7
78 79 7
80 81 8
81 82 8
82 83 8
83 84 8
84 85 8
85 86 8
86 87 8
87 88 8
88 89 8
90 91 9
91 92 9
92 93 9
93 94 9
94 95 9
95 96 9
96 97 9
97 98 9
98 99 9
1 9 66
1 8 13
1 0 93
1 7 91
2 6 14 7 14
1 5 70
1 3 99
1 2 53
1 4 86
1 1 16
1 8 34
1 9 99
2 0 62 5 62
1 7 65
1 5 62
1 4 64
2 6 21 5 21
1 2 12
1 3 9
1 1 75
1 9 12
2 8 26 9 26
1 7 64
1 6 92
1 4 67
1 5 28
1 3 66
1 2 83
2 1 38 3 38
1 0 58
1 0 77
2 1 73 2 73
1 3 82
1 2 75
1 6 84
1 4 19
1 5 18
1 7 89
1 8 8
1 9 73
1 0 34
1 1 74
2 7 48 0 48
1 5 44
1 4 92
2 6 40 2 40
1 3 60
1 2 62
2 8 22 5 22
2 9 67 7 67
2 9 8 7 8
1 8 85
1 3 58
1 7 97
1 5 92
1 4 89
1 6 75
1 2 77
1 1 95
1 0 5
1 8 52
1 9 43
1 6 5
1 7 78
1 5 12
1 3 62
1 4 21
1 2 80
1 1 60
1 0 31
1 9 81
2 8 23 2 23
1 7 23
1 6 75
1 4 78
1 5 56
1 3 51
1 2 39
1 1 53
1 0 96
1 9 79
2 8 55 4 55
1 2 88
1 4 21
1 5 83
1 3 93
1 6 47
1 7 10
1 0 63
1 1 14
1 0 43
1 1 63
2 2 83 4 83
1 3 29
1 4 52
1 5 98
1 6 54
1 7 39
1 8 33
1 9 23